
List of user-set options:

                                    Name   Value                used
                           compl_inf_tol = 1                     yes
                         constr_viol_tol = 1                     yes
                            dual_inf_tol = 1000                  yes
                           linear_solver = ma97                  yes
                              ma86_small = 1e-30                  no
                                  ma86_u = 0.0001                 no
                              ma97_order = best                  yes
                              ma97_small = 1e-30                 yes
                            ma97_switch1 = at_start              yes
                            ma97_switch2 = od_hd_reuse           yes
                                  ma97_u = 1e-06                 yes
                               ma97_umax = 0.5                   yes
                                max_iter = 1000                  yes
                    max_refinement_steps = 20                    yes
                    min_refinement_steps = 5                     yes
                                 mu_init = 1e-06                 yes
           mu_superlinear_decrease_power = 1.25                  yes
                   nlp_scaling_min_value = 1e-08                 yes
                        option_file_name = Preset_Case:_419_NCP.opt  yes
                             output_file = ./tmp/Preset_Case:_419_NCP.output  yes
                      print_user_options = yes                   yes
        required_infeasibility_reduction = 1                      no
                                     tol = 1e-08                 yes
                   warm_start_bound_frac = 1e-20                 yes
                   warm_start_bound_push = 1e-20                 yes
                   warm_start_init_point = yes                   yes
              warm_start_mult_bound_push = 1e-20                 yes
                warm_start_mult_init_max = 1e+40                 yes
             warm_start_slack_bound_frac = 1e-20                 yes
             warm_start_slack_bound_push = 1e-20                 yes

******************************************************************************
This program contains Ipopt, a library for large-scale nonlinear optimization.
 Ipopt is released as open source code under the Eclipse Public License (EPL).
         For more information visit http://projects.coin-or.org/Ipopt
******************************************************************************

This is Ipopt version 3.12.10, running with linear solver ma97.

Number of nonzeros in equality constraint Jacobian...:   117167
Number of nonzeros in inequality constraint Jacobian.:      213
Number of nonzeros in Lagrangian Hessian.............:    47513

Total number of variables............................:    29977
                     variables with only lower bounds:    11312
                variables with lower and upper bounds:    15135
                     variables with only upper bounds:        0
Total number of equality constraints.................:    29864
Total number of inequality constraints...............:       25
        inequality constraints with only lower bounds:        4
   inequality constraints with lower and upper bounds:        0
        inequality constraints with only upper bounds:       21

iter    objective    inf_pr   inf_du lg(mu)  ||d||  lg(rg) alpha_du alpha_pr  ls
   0 -1.5748691e-01 1.43e-01 2.00e+00  -6.0 0.00e+00    -  0.00e+00 0.00e+00   0
In iteration 0, 9 Slacks too small, adjusting variable bounds
   1 -1.5748691e-01 1.43e-01 8.05e+02  -6.0 1.10e+10    -  8.04e-14 1.08e-18h  1
   2 -1.5748683e-01 1.43e-01 1.14e+03  -6.0 1.47e+02    -  1.00e-02 8.81e-06f  1
   3 -1.5748655e-01 1.43e-01 1.10e+03  -6.0 1.09e+02    -  4.59e-02 1.18e-04h  1
   4 -1.5735826e-01 1.41e-01 1.08e+03  -6.0 3.86e+02    -  2.55e-02 1.20e-02h  3
   5 -1.5732199e-01 1.39e-01 9.91e+02  -6.0 9.89e+01    -  1.10e-01 1.53e-02h  1
   6 -1.5704220e-01 1.24e-01 9.16e+02  -6.0 9.48e+01    -  6.03e-02 1.07e-01h  1
   7 -1.5704193e-01 1.24e-01 8.46e+03  -6.0 8.38e+01    -  3.31e-02 1.25e-04h  1
   8 -1.5665272e-01 1.11e-01 1.61e+04  -6.0 1.02e+02    -  1.15e-02 1.08e-01h  2
   9 -1.5651187e-01 1.05e-01 2.93e+04  -6.0 7.90e+01    -  4.02e-03 5.74e-02h  1
iter    objective    inf_pr   inf_du lg(mu)  ||d||  lg(rg) alpha_du alpha_pr  ls
  10 -1.5643794e-01 1.01e-01 1.68e+04  -6.0 6.99e+01    -  7.38e-02 3.21e-02h  1
  11 -1.5609595e-01 8.58e-02 2.18e+04  -6.0 6.65e+01    -  1.21e-01 1.52e-01h  3
  12 -1.5582258e-01 8.50e-02 2.19e+04  -6.0 5.25e+01    -  3.09e-01 1.30e-01h  1
  13 -1.5563833e-01 9.04e-02 4.91e+04  -6.0 3.42e+01    -  3.40e-01 7.77e-02h  3
  14 -1.5552691e-01 8.63e-02 5.09e+04  -6.0 3.95e+01    -  3.53e-01 7.85e-02h  3
  15 -1.5549515e-01 6.85e-02 4.82e+04  -6.0 3.99e+01    -  1.74e-02 8.27e-02h  3
  16 -1.5740738e-01 2.67e-01 4.16e+04  -6.0 4.30e+01    -  1.78e-01 2.77e-01H  1
  17 -1.5838617e-01 5.12e-01 3.57e+04  -6.0 4.91e+01    -  1.71e-01 1.90e-01h  1
  18 -1.6106241e-01 2.78e+00 5.59e+04  -6.0 4.24e+01    -  2.04e-01 5.19e-01h  1
  19 -1.6096390e-01 2.46e+00 4.14e+04  -6.0 2.83e+01    -  2.01e-01 1.14e-01h  1
iter    objective    inf_pr   inf_du lg(mu)  ||d||  lg(rg) alpha_du alpha_pr  ls
  20 -1.6092962e-01 2.38e+00 1.64e+04  -6.0 3.00e+01    -  2.33e-01 3.15e-02h  1
  21 -1.6003298e-01 1.33e+00 1.98e+04  -6.0 3.50e+01    -  3.06e-01 4.29e-01h  1
  22 -1.5924733e-01 9.88e-01 3.20e+04  -6.0 3.31e+01    -  1.07e-02 2.50e-01h  3
  23 -1.5921056e-01 9.72e-01 3.14e+04  -6.0 2.56e+01    -  1.69e-02 1.56e-02h  7
  24 -1.5920114e-01 9.69e-01 3.12e+04  -6.0 2.59e+01    -  5.37e-03 3.91e-03h  9
  25 -1.5919869e-01 9.68e-01 3.06e+04  -6.0 2.65e+01    -  8.80e-03 9.77e-04h 11
  26 -1.5919808e-01 9.68e-01 2.98e+04  -6.0 2.66e+01    -  1.10e-02 2.44e-04h 13
  27 -1.5669745e-01 9.07e-01 7.15e+04  -6.0 2.65e+01    -  1.17e-02 1.00e+00h  1
  28 -1.5720442e-01 3.87e-02 6.81e+04  -6.0 1.96e+00    -  4.00e-01 1.00e+00h  1
  29 -1.5835576e-01 6.44e-03 2.30e+03  -6.0 3.77e+00    -  6.13e-01 1.00e+00h  1
iter    objective    inf_pr   inf_du lg(mu)  ||d||  lg(rg) alpha_du alpha_pr  ls
  30 -1.6083585e-01 6.21e-02 1.86e+03  -6.0 1.04e+01    -  4.90e-01 1.00e+00h  1
  31 -1.6457783e-01 2.44e-01 7.23e+02  -6.0 1.95e+01    -  6.21e-01 9.92e-01h  1
  32 -1.6838092e-01 8.79e-01 1.73e+02  -6.0 3.83e+01    -  2.71e-01 5.57e-01h  1
  33 -1.7112041e-01 8.57e-01 2.16e+03  -6.0 5.22e+01    -  1.08e-01 3.87e-01h  1
  34 -1.7247472e-01 7.88e-01 1.78e+03  -6.0 4.47e+01    -  5.97e-02 1.65e-01h  1
  35 -1.7431520e-01 6.68e-01 1.35e+03  -6.0 4.29e+01    -  3.58e-01 2.57e-01h  1
  36 -1.7648024e-01 6.55e-01 1.02e+03  -6.0 6.17e+01    -  5.23e-02 2.38e-01h  1
  37 -1.7776573e-01 6.23e-01 8.55e+02  -6.0 7.13e+01    -  4.23e-01 1.63e-01h  1
  38 -1.8310231e-01 7.26e+00 4.70e+02  -6.0 1.16e+02    -  2.67e-01 4.50e-01h  1
  39 -1.8561249e-01 8.31e+00 3.87e+02  -6.0 1.47e+02    -  5.49e-01 1.80e-01h  1
iter    objective    inf_pr   inf_du lg(mu)  ||d||  lg(rg) alpha_du alpha_pr  ls
  40 -1.8877181e-01 1.07e+01 3.32e+02  -6.0 2.59e+02    -  5.78e-01 1.44e-01h  1
  41 -1.9423981e-01 1.64e+01 2.57e+02  -6.0 4.29e+02    -  4.36e-01 2.24e-01h  1
  42 -1.9423658e-01 1.55e+01 2.44e+02  -6.0 1.33e+01  -4.0 5.08e-02 4.95e-02h  1
  43 -1.9425502e-01 1.55e+01 2.43e+02  -6.0 1.07e+03    -  2.47e-01 8.78e-04h  1
  44 -1.9593937e-01 1.40e+01 2.12e+02  -6.0 1.10e+03    -  3.81e-01 1.26e-01h  1
  45 -1.9995111e-01 1.51e+01 6.62e+02  -6.0 7.61e+02    -  2.06e-01 4.51e-01h  1
  46 -1.9977398e-01 8.09e+00 2.63e+03  -6.0 2.25e+00  -4.5 7.81e-02 4.64e-01h  1
  47 -1.9967382e-01 4.63e+00 1.51e+03  -6.0 1.21e+00  -5.0 9.60e-01 4.27e-01h  1
  48 -1.9955622e-01 1.38e-01 4.65e+01  -6.0 1.62e+00  -5.4 1.00e+00 9.69e-01h  1
  49 -1.9960247e-01 1.54e-03 9.01e-02  -6.0 4.04e+00  -5.9 1.00e+00 1.00e+00h  1
iter    objective    inf_pr   inf_du lg(mu)  ||d||  lg(rg) alpha_du alpha_pr  ls
  50 -1.9974961e-01 5.80e-03 1.05e-01  -6.0 1.17e+01  -6.4 1.00e+00 1.00e+00h  1
  51 -2.0015360e-01 4.02e-02 2.36e-01  -6.0 3.44e+01  -6.9 1.00e+00 1.00e+00h  1
  52 -2.0134424e-01 3.68e-01 1.08e+00  -6.0 1.05e+02  -7.3 1.00e+00 1.00e+00h  1
  53 -2.0195600e-01 3.27e-01 3.37e+01  -6.0 3.33e+02  -7.8 4.00e-01 1.67e-01h  1
  54 -2.0448713e-01 6.25e-01 1.45e+04  -6.0 3.77e+02  -8.3 1.00e+00 4.74e-01h  1
  55 -2.0639620e-01 8.40e-01 4.81e+03  -6.0 3.01e+02  -7.9 2.58e-03 6.52e-01h  1
  56 -2.0735744e-01 6.99e-01 2.27e+03  -6.0 4.11e+02  -8.3 2.34e-01 1.85e-01h  1
  57 -2.0854408e-01 6.71e-01 2.90e+07  -6.0 4.34e+02  -7.9 6.18e-04 3.13e-01h  1
  58 -2.0898079e-01 2.30e+00 2.34e+07  -6.0 1.23e+03  -8.4 2.32e-01 1.93e-01h  1
  59 -2.0914111e-01 2.47e+00 3.17e+03  -6.0 2.19e+02  -8.0 5.39e-01 1.00e+00h  1
iter    objective    inf_pr   inf_du lg(mu)  ||d||  lg(rg) alpha_du alpha_pr  ls
  60 -2.1116020e-01 8.75e-01 1.31e+03  -6.0 3.34e+02  -8.4 5.73e-01 5.82e-01h  1
  61 -2.1178075e-01 2.25e-01 4.60e+01  -6.0 1.14e+02  -8.0 4.84e-02 1.00e+00h  1
  62 -2.1233705e-01 2.04e-01 4.09e+01  -6.0 7.92e+02  -7.6 1.21e-01 9.38e-02h  1
  63 -2.1295173e-01 7.67e-01 2.72e+01  -6.0 1.93e+02  -8.1 1.00e+00 3.89e-01h  1
  64 -2.1433396e-01 1.09e+00 2.44e+01  -6.0 6.02e+02  -8.5 6.84e-01 5.14e-01h  1
  65 -2.1618401e-01 2.86e+00 1.91e+01  -6.0 2.71e+02  -8.1 7.34e-01 9.41e-01h  1
  66 -2.1705938e-01 2.44e+00 4.66e+02  -6.0 8.55e+02  -8.6 7.58e-01 2.04e-01h  1
  67 -2.1734485e-01 2.31e+00 5.59e+02  -6.0 2.79e+02  -8.2 6.31e-01 9.21e-02h  1
  68 -2.1859807e-01 1.51e+00 1.97e+02  -6.0 3.49e+02  -8.7 2.46e-01 4.62e-01h  1
  69 -2.2146108e-01 4.96e+00 1.66e+02  -6.0 5.21e+02  -8.2 4.99e-01 1.00e+00h  1
iter    objective    inf_pr   inf_du lg(mu)  ||d||  lg(rg) alpha_du alpha_pr  ls
  70 -2.2242181e-01 2.54e+00 1.44e+02  -6.0 2.01e+02  -7.8 5.76e-01 4.93e-01h  1
  71 -2.2452340e-01 2.28e+00 1.99e+03  -6.0 6.18e+02  -8.3 1.30e-01 3.34e-01h  1
  72 -2.2452151e-01 2.25e+00 1.28e+04  -6.0 3.57e+00  -0.4 2.15e-03 9.60e-03h  1
  73 -2.2451892e-01 2.24e+00 1.28e+04  -6.0 3.50e+00  -0.9 1.65e-03 6.45e-03h  1
  74 -2.2451859e-01 2.24e+00 1.27e+04  -6.0 3.43e+00  -0.5 6.75e-03 1.00e-03h  1
  75 -2.2451792e-01 2.23e+00 1.27e+04  -6.0 3.31e+00  -0.1 2.19e-02 2.60e-03h  1
  76 -2.2451440e-01 2.21e+00 1.26e+04  -6.0 3.30e+00  -0.5 1.73e-02 9.04e-03h  1
  77 -2.2450752e-01 2.17e+00 1.24e+04  -6.0 3.27e+00  -0.1 3.49e-02 1.73e-02h  1
  78 -2.2450390e-01 2.15e+00 1.23e+04  -6.0 3.22e+00  -0.6 4.30e-02 8.60e-03h  1
  79 -2.2445631e-01 1.90e+00 1.08e+04  -6.0 3.19e+00  -0.2 1.52e-01 1.19e-01h  1
iter    objective    inf_pr   inf_du lg(mu)  ||d||  lg(rg) alpha_du alpha_pr  ls
  80 -2.2432470e-01 1.21e+00 6.84e+03  -6.0 2.83e+00  -0.6 1.13e-01 3.68e-01h  1
  81 -2.2428111e-01 1.02e+00 5.79e+03  -6.0 1.83e+00  -1.1 1.65e-02 1.54e-01h  1
  82 -2.2424444e-01 8.52e-01 4.82e+03  -6.0 1.58e+00  -1.6 7.19e-01 1.66e-01h  1
  83 -2.2403060e-01 8.29e-03 1.21e+03  -6.0 1.37e+00  -2.1 2.65e-01 1.00e+00h  1
  84 -2.2404690e-01 6.63e-06 2.17e+01  -6.0 2.48e-02  -2.5 5.79e-01 1.00e+00h  1
  85 -2.2410118e-01 5.21e-05 1.50e+01  -6.0 8.23e-02  -3.0 6.64e-01 1.00e+00h  1
  86 -2.2412264e-01 6.09e-05 6.49e+00  -6.0 1.83e-01  -3.5 5.57e-01 1.85e-01h  1
  87 -2.2420281e-01 8.44e-04 2.95e+00  -6.0 5.08e-01  -4.0 6.19e-01 3.89e-01f  1
  88 -2.2427093e-01 1.27e-03 4.18e+00  -6.0 1.23e+00  -4.5 6.06e-01 1.74e-01f  1
  89 -2.2459232e-01 1.56e-01 2.72e+00  -6.0 1.77e+00  -4.9 5.52e-01 7.56e-01f  1
iter    objective    inf_pr   inf_du lg(mu)  ||d||  lg(rg) alpha_du alpha_pr  ls
  90 -2.2478425e-01 1.87e-01 1.21e+01  -6.0 4.23e+00  -5.4 1.00e+00 2.56e-01h  1
  91 -2.2494893e-01 2.08e-01 1.07e+01  -6.0 8.54e+00  -5.9 6.97e-01 1.39e-01h  1
  92 -2.2507755e-01 2.22e-01 1.95e+01  -6.0 1.39e+01  -6.4 7.27e-01 8.69e-02h  1
  93 -2.2541487e-01 3.10e-01 4.18e+01  -6.0 1.47e+01  -6.8 2.48e-01 2.99e-01h  1
  94 -2.2586772e-01 5.46e-01 3.25e+01  -6.0 5.29e+01  -7.3 1.00e+00 3.02e-01h  1
  95 -2.2732989e-01 2.17e-01 2.77e+01  -6.0 1.09e+02  -7.8 4.99e-01 1.00e+00h  1
  96 -2.2850683e-01 6.47e-01 3.55e+01  -6.0 2.81e+02  -8.3 2.54e-01 3.69e-01h  1
  97 -2.2941997e-01 4.16e-01 4.36e+01  -6.0 6.35e+02  -8.7 8.54e-02 1.20e-01h  1
  98 -2.3203493e-01 1.36e+00 1.25e+02  -6.0 2.33e+02  -8.3 2.45e-01 1.00e+00f  1
  99 -2.3230624e-01 1.24e+00 1.33e+02  -6.0 1.52e+02  -7.9 3.91e-01 9.16e-02h  1
iter    objective    inf_pr   inf_du lg(mu)  ||d||  lg(rg) alpha_du alpha_pr  ls
 100 -2.3315114e-01 9.51e-01 1.15e+02  -6.0 2.86e+02  -8.4 5.83e-01 2.75e-01h  1
 101 -2.3445999e-01 1.23e+00 7.67e+01  -6.0 8.17e+02  -8.9 5.54e-01 2.44e-01h  1
 102 -2.3631127e-01 1.72e+00 7.13e+01  -6.0 1.57e+03  -9.3 1.63e-02 2.22e-01h  1
Error in an AMPL evaluation. Run with "halt_on_ampl_error yes" to see details.
Warning: Cutting back alpha due to evaluation error
 103 -2.3652753e-01 1.62e+00 4.68e+01  -6.0 5.10e+02  -8.9 9.26e-01 6.22e-02h  2
 104 -2.3829866e-01 1.71e+00 3.56e+01  -6.0 1.38e+03  -9.4 2.23e-01 2.40e-01h  1
 105 -2.3938139e-01 1.10e+00 4.32e+02  -6.0 4.59e+02  -9.0 4.96e-01 3.82e-01h  1
 106 -2.4165323e-01 1.13e+01 4.07e+02  -6.0 2.96e+03  -9.4 1.16e-01 4.59e-01h  1
 107 -2.4548126e-01 1.42e+01 1.47e+04  -6.0 1.88e+03  -9.9 3.97e-02 4.95e-01h  1
 108 -2.4565891e-01 1.32e+01 1.35e+04  -6.0 1.39e+03  -9.5 9.24e-02 7.75e-02h  1
 109 -2.4586338e-01 1.24e+01 1.26e+04  -6.0 2.80e+03 -10.0 1.06e-01 6.34e-02h  1
iter    objective    inf_pr   inf_du lg(mu)  ||d||  lg(rg) alpha_du alpha_pr  ls
 110 -2.4615651e-01 1.16e+01 1.17e+04  -6.0 4.18e+03 -10.4 3.17e-01 6.04e-02h  1
 111 -2.4692423e-01 9.09e+00 9.12e+03  -6.0 3.59e+03 -10.0 8.69e-02 2.23e-01h  1
 112 -2.4792411e-01 4.00e+01 7.63e+03  -6.0 1.01e+04    -  1.04e-01 1.54e-01h  1
 113 -2.4814467e-01 3.42e+01 6.48e+03  -6.0 2.76e+03 -10.5 5.50e-02 1.53e-01h  1
 114 -2.4811223e-01 2.94e+01 5.51e+03  -6.0 3.93e+03 -11.0 1.61e-01 1.47e-01h  1
 115 -2.4812409e-01 2.93e+01 5.44e+03  -6.0 1.39e+04 -10.5 1.29e-03 1.39e-02h  1
 116 -2.4813765e-01 2.83e+01 5.26e+03  -6.0 3.54e+03 -11.0 1.02e-02 3.54e-02h  1
 117 -2.4813821e-01 2.81e+01 5.22e+03  -6.0 8.15e+03  -7.0 1.85e-02 5.90e-03f  1
 118 -2.4826462e-01 2.09e+01 3.90e+03  -6.0 1.23e+03  -7.5 2.17e-01 2.57e-01f  1
 119 -2.4838517e-01 1.60e+01 1.06e+03  -6.0 1.22e+03  -7.9 1.95e-01 7.82e-01h  1
iter    objective    inf_pr   inf_du lg(mu)  ||d||  lg(rg) alpha_du alpha_pr  ls
 120 -2.4837605e-01 1.57e+01 1.04e+03  -6.0 5.20e+02  -8.4 1.11e-02 1.47e-02h  1
 121 -2.4831154e-01 3.29e-03 8.90e+01  -6.0 1.75e+00  -6.2 5.03e-01 1.00e+00h  1
 122 -2.4828795e-01 8.56e-04 3.58e+01  -6.0 4.88e+00  -6.7 4.82e-01 1.00e+00h  1
 123 -2.4830863e-01 6.13e-03 1.34e+00  -6.0 1.52e+01  -7.1 1.00e+00 7.87e-01h  1
 124 -2.4833553e-01 1.76e-02 1.18e+00  -6.0 5.56e+01  -7.6 3.58e-01 3.01e-01f  1
 125 -2.4833972e-01 1.57e-02 3.11e+00  -6.0 1.76e+01  -7.2 6.83e-01 1.45e-01h  1
 126 -2.4843655e-01 4.17e-01 5.93e-01  -6.0 5.43e+01  -7.7 1.00e+00 1.00e+00f  1
 127 -2.4849924e-01 3.24e-01 6.07e-01  -6.0 2.21e+02  -8.1 1.16e-01 1.30e-01h  1
 128 -2.4873419e-01 3.41e-01 2.77e+00  -6.0 6.14e+02  -8.6 1.87e-01 1.87e-01h  1
 129 -2.4877725e-01 3.00e-01 1.93e+03  -6.0 3.51e+02  -9.1 3.38e-01 1.23e-01h  1
iter    objective    inf_pr   inf_du lg(mu)  ||d||  lg(rg) alpha_du alpha_pr  ls
 130 -2.4886024e-01 2.72e-01 4.64e+03  -6.0 5.92e+02  -9.6 5.50e-01 1.14e-01h  1
 131 -2.4910841e-01 1.48e+00 5.62e+03  -6.0 6.59e+02 -10.0 1.00e+00 4.46e-01h  1
 132 -2.4937959e-01 6.87e+00 2.74e+03  -6.0 1.27e+03 -10.5 5.64e-01 5.44e-01h  1
 133 -2.4948848e-01 4.94e+00 8.35e+03  -6.0 4.58e+02 -10.1 5.60e-01 3.23e-01h  1
 134 -2.4949153e-01 4.87e+00 4.99e+03  -6.0 4.23e+02  -9.7 2.27e-01 1.48e-02h  1
 135 -2.4965519e-01 3.87e+00 9.20e+06  -6.0 8.55e+02 -10.1 1.99e-03 9.19e-01h  1
 136 -2.4964530e-01 3.70e+00 8.79e+06  -6.0 4.89e+02  -9.7 6.58e-01 4.45e-02h  1
 137 -2.4946940e-01 3.19e-01 5.41e+04  -6.0 1.51e+02  -9.3 9.76e-01 1.00e+00h  1
 138 -2.4946257e-01 2.84e-01 4.83e+04  -6.0 8.42e+02  -9.8 5.77e-01 1.08e-01h  3
 139 -2.4937188e-01 2.34e-01 2.42e+04  -6.0 2.46e+02  -9.3 1.00e+00 5.00e-01h  2
iter    objective    inf_pr   inf_du lg(mu)  ||d||  lg(rg) alpha_du alpha_pr  ls
 140 -2.4946802e-01 3.30e+00 1.54e+04  -6.0 2.16e+03  -9.8 5.01e-01 3.65e-01h  1
 141 -2.4979413e-01 9.35e+00 1.05e+02  -6.0 8.45e+02  -9.4 1.07e-01 1.00e+00h  1
 142 -2.5045656e-01 2.67e+00 1.19e+01  -6.0 3.73e+02  -9.0 1.50e-01 1.00e+00h  1
 143 -2.5077923e-01 5.05e-01 1.44e+00  -6.0 1.52e+02  -8.5 1.00e+00 1.00e+00h  1
 144 -2.5089177e-01 8.25e-02 2.16e-01  -6.0 6.19e+01  -8.1 1.00e+00 1.00e+00h  1
 145 -2.5122277e-01 1.21e+00 2.75e+00  -6.0 2.38e+02  -8.6 1.00e+00 1.00e+00h  1
 146 -2.5140285e-01 3.79e-01 6.65e-01  -6.0 9.77e+01  -8.2 9.18e-01 1.00e+00h  1
 147 -2.5179635e-01 2.20e+00 1.11e+01  -6.0 4.14e+02  -8.6 7.48e-01 7.59e-01h  1
 148 -2.5407395e-01 1.80e+01 2.25e+02  -6.0 9.43e+02  -9.1 7.73e-01 9.55e-01h  1
 149 -2.5397327e-01 1.47e+01 8.13e+01  -6.0 6.64e+02  -8.7 1.59e-01 2.02e-01h  1
iter    objective    inf_pr   inf_du lg(mu)  ||d||  lg(rg) alpha_du alpha_pr  ls
 150 -2.5561378e-01 1.64e+01 5.39e+01  -6.0 1.33e+03  -9.2 1.24e-02 4.44e-01h  1
 151 -2.5562269e-01 1.51e+01 4.94e+01  -6.0 9.21e+02  -8.7 1.10e-01 8.86e-02h  1
 152 -2.5575750e-01 1.45e+01 4.73e+01  -6.0 1.50e+03  -9.2 1.11e-01 4.28e-02h  1
 153 -2.5641496e-01 1.03e+01 4.84e+02  -6.0 1.37e+03  -9.7 9.71e-01 2.99e-01h  1
 154 -2.5730382e-01 5.14e+00 2.69e+02  -6.0 1.20e+03 -10.2 6.27e-01 4.99e-01h  1
 155 -2.5748467e-01 4.47e+01 2.50e+02  -6.0 7.65e+03 -10.7 8.17e-02 2.12e-01h  1
 156 -2.5757497e-01 4.00e+01 2.19e+02  -6.0 1.49e+04    -  1.62e-01 1.09e-01h  1
 157 -2.5766930e-01 4.04e+01 3.88e+02  -6.0 9.98e+03    -  4.76e-02 1.44e-01h  1
 158 -2.5769479e-01 3.87e+01 4.16e+02  -6.0 1.32e+04 -11.1 1.00e-03 4.02e-02H  1
 159 -2.5771744e-01 3.83e+01 4.93e+02  -6.0 1.58e+04 -11.6 1.92e-01 3.79e-02h  1
iter    objective    inf_pr   inf_du lg(mu)  ||d||  lg(rg) alpha_du alpha_pr  ls
 160 -2.5775219e-01 4.34e+01 9.61e+02  -6.0 1.01e+04    -  1.33e-01 8.14e-02h  1
 161 -2.5798099e-01 2.73e+01 9.61e+04  -6.0 7.91e+02    -  1.01e-02 3.75e-01h  1
 162 -2.5803489e-01 2.63e+01 8.60e+04  -6.0 3.78e+03    -  1.36e-01 1.05e-01h  1
 163 -2.5816108e-01 2.35e+01 7.38e+04  -6.0 1.91e+03    -  1.12e-01 1.42e-01h  1
 164 -2.5850297e-01 1.38e+01 4.32e+04  -6.0 9.04e+02    -  3.30e-01 4.14e-01h  1
 165 -2.5906948e-01 3.16e+00 1.98e+03  -6.0 4.68e+02    -  6.25e-01 1.00e+00h  1
 166 -2.5907324e-01 3.14e+00 9.19e+03  -6.0 7.14e+02    -  1.28e-01 8.13e-03h  1
 167 -2.5916279e-01 2.57e+00 8.11e+03  -6.0 5.16e+02    -  1.68e-01 3.62e-01f  1
 168 -2.5918629e-01 3.35e+00 1.21e+03  -6.0 7.44e+02    -  2.44e-01 7.00e-01h  1
 169 -2.5922161e-01 2.31e+00 9.65e+01  -6.0 4.44e+02    -  2.48e-02 1.00e+00h  1
iter    objective    inf_pr   inf_du lg(mu)  ||d||  lg(rg) alpha_du alpha_pr  ls
 170 -2.5920884e-01 5.87e-02 8.68e-01  -6.0 3.80e+01    -  1.00e+00 1.00e+00h  1
 171 -2.5920844e-01 5.67e-01 4.93e+01  -6.0 6.44e+03    -  4.57e-01 3.42e-02h  2
 172 -2.5920612e-01 4.33e-01 4.72e+01  -6.0 2.28e+02    -  1.00e+00 4.87e-01h  2
 173 -2.5920505e-01 4.56e-02 2.83e-01  -6.0 6.32e+01    -  1.00e+00 1.00e+00h  1
 174 -2.5920510e-01 1.13e-04 2.36e-05  -6.0 3.18e+00    -  1.00e+00 1.00e+00h  1
 175 -2.5920510e-01 1.92e-10 1.68e-11  -6.0 1.75e-03    -  1.00e+00 1.00e+00h  1
 176 -2.5971157e-01 1.32e+00 4.60e+01  -7.5 3.06e+03    -  3.72e-01 2.10e-01f  1
 177 -2.5975210e-01 1.28e+00 1.22e+02  -7.5 2.46e+02  -9.4 4.61e-01 3.27e-02h  1
 178 -2.6037679e-01 8.14e+00 4.69e+01  -7.5 3.57e+03    -  3.48e-03 3.93e-01h  1
 179 -2.6049423e-01 7.14e+00 7.43e+01  -7.5 2.30e+03    -  4.03e-01 1.37e-01h  1
iter    objective    inf_pr   inf_du lg(mu)  ||d||  lg(rg) alpha_du alpha_pr  ls
 180 -2.6072435e-01 6.90e+00 3.15e+01  -7.5 1.93e+03    -  1.36e-01 3.18e-01h  1
 181 -2.6080701e-01 5.92e+00 4.72e+01  -7.5 2.20e+02  -9.9 3.86e-01 1.67e-01h  1
 182 -2.6083249e-01 5.51e+00 9.89e+01  -7.5 1.58e+02  -9.4 9.94e-01 7.91e-02h  1
 183 -2.6093781e-01 3.29e+00 7.02e+01  -7.5 2.81e+02  -9.9 8.60e-01 4.13e-01h  1
 184 -2.6099277e-01 2.48e+00 5.06e+01  -7.5 1.77e+03    -  1.46e-01 2.58e-01h  1
 185 -2.6101341e-01 1.97e+00 5.22e+01  -7.5 3.31e+02 -10.4 1.00e+00 2.08e-01h  1
 186 -2.6109551e-01 1.66e+00 9.91e-01  -7.5 5.83e+02 -10.9 1.00e+00 9.94e-01h  1
 187 -2.6112842e-01 8.36e+01 9.63e-01  -7.5 2.70e+03    -  9.98e-02 1.00e+00h  1
 188 -2.6113108e-01 8.92e+01 1.25e+00  -7.5 4.72e+03    -  6.23e-01 3.59e-01h  1
 189 -2.6113506e-01 4.57e+01 1.48e+00  -7.5 3.58e+02    -  2.81e-01 4.89e-01h  1
iter    objective    inf_pr   inf_du lg(mu)  ||d||  lg(rg) alpha_du alpha_pr  ls
 190 -2.6113457e-01 3.78e+01 1.30e+00  -7.5 1.85e+03    -  7.53e-02 1.73e-01h  1
 191 -2.6113431e-01 3.20e+01 8.75e-01  -7.5 6.71e+02    -  6.43e-01 1.57e-01h  1
 192 -2.6113428e-01 2.70e+01 6.64e-01  -7.5 6.18e+02    -  8.47e-01 1.60e-01h  1
 193 -2.6113394e-01 9.53e-01 2.34e-01  -7.5 2.86e+02    -  7.80e-03 1.00e+00h  1
 194 -2.6113443e-01 4.83e-01 8.27e-02  -7.5 7.35e-01  -8.6 6.77e-01 4.93e-01h  1
 195 -2.6113405e-01 1.91e-05 3.89e-05  -7.5 1.18e+00  -9.1 1.00e+00 1.00e+00h  1
 196 -2.6113419e-01 9.23e-05 3.43e-06  -7.5 2.64e+00  -9.6 1.00e+00 1.00e+00h  1
 197 -2.6113422e-01 9.20e-04 3.52e-06  -7.5 8.02e+00 -10.1 1.00e+00 1.00e+00h  1
 198 -2.6113425e-01 1.17e-02 1.18e-05  -7.5 2.51e+01 -10.5 1.00e+00 1.00e+00h  1
 199 -2.6113428e-01 5.38e-01 1.60e-04  -7.5 9.06e+01 -11.0 1.00e+00 1.00e+00h  1
iter    objective    inf_pr   inf_du lg(mu)  ||d||  lg(rg) alpha_du alpha_pr  ls
 200 -2.6113428e-01 5.51e-01 5.10e-02  -7.5 3.37e+03    -  9.53e-02 5.74e-02h  2
 201 -2.6113451e-01 1.94e+01 2.53e-01  -7.5 1.26e+03    -  5.02e-01 1.00e+00h  1
 202 -2.6113479e-01 1.86e+00 6.12e-03  -7.5 3.68e+02 -11.5 1.00e+00 1.00e+00h  1
 203 -2.6113543e-01 2.19e+01 8.96e-02  -7.5 1.32e+03 -12.0 8.16e-01 1.00e+00h  1
 204 -2.6113626e-01 3.63e+01 5.65e-01  -7.5 1.29e+04 -12.4 1.63e-01 8.60e-02h  2
 205 -2.6113700e-01 4.46e+01 1.04e+00  -7.5 9.86e+04 -12.9 2.00e-02 8.04e-03h  2
 206 -2.6113760e-01 4.76e+01 2.26e+00  -7.5 1.72e+04    -  1.38e-01 3.26e-02h  2
 207 -2.6113802e-01 5.09e-01 3.76e+00  -7.5 3.61e+01    -  1.81e-01 1.00e+00h  1
 208 -2.6113814e-01 3.18e-01 2.42e-03  -7.5 1.19e+02 -10.7 1.00e+00 1.00e+00h  1
 209 -2.6114112e-01 6.44e+01 1.57e+00  -7.5 1.58e+04    -  3.08e-02 3.51e-01H  1
iter    objective    inf_pr   inf_du lg(mu)  ||d||  lg(rg) alpha_du alpha_pr  ls
 210 -2.6113976e-01 6.50e+01 1.66e-01  -7.5 3.36e+03    -  1.00e+00 1.00e+00H  1
 211 -2.6114329e-01 7.24e+01 1.98e+00  -7.5 7.22e+03    -  9.11e-02 3.82e-01h  1
 212 -2.6114392e-01 4.95e+01 2.04e+01  -7.5 1.63e+03    -  1.91e-01 1.00e+00h  1
 213 -2.6114399e-01 3.01e+01 9.82e+00  -7.5 8.26e+02    -  8.61e-02 4.35e-01h  1
 214 -2.6114397e-01 2.90e+01 9.49e+00  -7.5 7.21e+02    -  1.10e-03 3.56e-02h  1
 215 -2.6114404e-01 3.65e-01 8.26e-03  -7.5 1.35e+02    -  1.00e+00 1.00e+00h  1
 216 -2.6114370e-01 1.93e+00 2.09e-02  -7.5 3.25e+02 -11.2 1.00e+00 1.00e+00h  1
 217 -2.6114271e-01 1.64e+01 9.15e-02  -7.5 9.53e+02    -  1.00e+00 1.00e+00h  1
 218 -2.6114179e-01 8.62e+00 7.46e-01  -7.5 7.23e+02    -  1.05e-01 1.00e+00h  1
 219 -2.6114257e-01 7.14e+00 2.47e-02  -7.5 6.49e+02    -  1.00e+00 1.00e+00h  1
iter    objective    inf_pr   inf_du lg(mu)  ||d||  lg(rg) alpha_du alpha_pr  ls
 220 -2.6114276e-01 6.12e-01 8.05e-03  -7.5 1.82e+02    -  1.00e+00 1.00e+00h  1
 221 -2.6114277e-01 3.59e-04 1.47e-05  -7.5 3.95e+00    -  1.00e+00 1.00e+00h  1
 222 -2.6114277e-01 4.83e-08 2.56e-09  -7.5 5.33e-02    -  1.00e+00 1.00e+00h  1
 223 -2.6114491e-01 1.53e+00 4.86e+00  -9.0 1.28e+03    -  5.79e-01 2.32e-01h  1
 224 -2.6114856e-01 5.20e+01 3.50e-01  -9.0 2.38e+03    -  4.79e-01 7.26e-01h  1
 225 -2.6114846e-01 1.93e+01 1.79e+00  -9.0 3.25e+02    -  6.01e-02 6.30e-01h  1
 226 -2.6114930e-01 1.99e+01 1.05e+00  -9.0 1.01e+03 -11.6 6.35e-01 1.00e+00h  1
 227 -2.6115029e-01 4.49e+01 9.73e-01  -9.0 4.71e+03    -  7.78e-02 2.60e-01h  1
 228 -2.6115046e-01 1.02e+01 1.40e+01  -9.0 6.45e+02    -  1.69e-01 1.00e+00h  1
 229 -2.6115111e-01 5.71e-01 2.79e+00  -9.0 1.49e+02 -11.2 9.44e-02 1.00e+00h  1
iter    objective    inf_pr   inf_du lg(mu)  ||d||  lg(rg) alpha_du alpha_pr  ls
 230 -2.6115164e-01 5.33e+00 1.60e-01  -9.0 4.85e+02 -11.7 9.11e-01 1.00e+00h  1
 231 -2.6115216e-01 9.09e+00 7.11e-01  -9.0 7.30e+03 -12.2 2.24e-01 5.72e-02h  1
 232 -2.6115228e-01 7.62e+00 1.06e+00  -9.0 8.00e+02 -12.7 4.73e-01 1.00e+00h  1
 233 -2.6115318e-01 9.50e+01 8.52e-01  -9.0 1.47e+04 -13.1 2.28e-02 4.39e-01H  1
 234 -2.6115491e-01 5.57e+01 2.47e+00  -9.0 1.98e+03 -12.7 1.84e-01 1.00e+00h  1
 235 -2.6115681e-01 5.16e+01 4.65e-01  -9.0 1.86e+03 -12.3 1.81e-01 1.00e+00h  1
 236 -2.6115919e-01 6.29e+01 4.49e-01  -9.0 2.28e+03 -12.8 3.62e-02 1.00e+00h  1
 237 -2.6116119e-01 5.63e+01 4.16e-01  -9.0 3.37e+03 -12.3 7.32e-02 4.95e-01h  1
 238 -2.6116256e-01 1.63e+01 1.85e+00  -9.0 9.16e+02 -11.9 4.89e-03 1.00e+00h  1
 239 -2.6116495e-01 3.49e+01 3.50e-01  -9.0 1.37e+03 -12.4 1.55e-01 1.00e+00h  1
iter    objective    inf_pr   inf_du lg(mu)  ||d||  lg(rg) alpha_du alpha_pr  ls
 240 -2.6116636e-01 7.25e+01 3.29e-01  -9.0 9.52e+03 -12.9 5.86e-02 2.12e-01h  1
 241 -2.6116630e-01 7.15e+01 2.84e+00  -9.0 9.08e+03 -12.4 3.17e-01 2.20e-02h  1
 242 -2.6116639e-01 7.14e+01 2.38e+00  -9.0 6.74e+04 -12.9 9.85e-03 1.56e-03h  4
 243 -2.6116699e-01 5.43e+01 1.65e+01  -9.0 3.07e+03 -12.5 4.86e-03 3.42e-01h  1
 244 -2.6116702e-01 1.45e+00 2.81e+03  -9.0 3.02e+02  -9.3 5.40e-02 1.00e+00h  1
 245 -2.6116700e-01 9.58e-03 2.44e-05  -9.0 2.01e+01  -9.8 1.00e+00 1.00e+00h  1
 246 -2.6116702e-01 4.35e-03 2.76e-06  -9.0 1.45e+01 -10.3 1.00e+00 1.00e+00h  1
 247 -2.6116709e-01 3.82e-02 2.37e-05  -9.0 4.29e+01 -10.8 1.00e+00 1.00e+00h  1
 248 -2.6116730e-01 3.30e-01 2.02e-04  -9.0 1.26e+02 -11.3 1.00e+00 1.00e+00h  1
 249 -2.6116792e-01 2.63e+00 1.56e-03  -9.0 3.61e+02 -11.7 1.00e+00 1.00e+00h  1
iter    objective    inf_pr   inf_du lg(mu)  ||d||  lg(rg) alpha_du alpha_pr  ls
 250 -2.6116977e-01 2.40e+01 9.10e-03  -9.0 1.26e+03 -12.2 1.00e+00 1.00e+00h  1
 251 -2.6117184e-01 5.71e+01 2.09e-02  -9.0 4.57e+03 -12.7 3.90e-01 3.51e-01h  1
 252 -2.6117186e-01 5.70e+01 3.29e-02  -9.0 3.03e+04    -  5.07e-03 1.24e-03h  5
 253 -2.6117189e-01 5.69e+01 2.90e-01  -9.0 2.33e+04 -13.2 4.55e-02 1.84e-03h  4
 254 -2.6117305e-01 3.98e+01 8.55e+00  -9.0 1.59e+03 -11.8 2.47e-02 6.89e-01h  1
 255 -2.6117416e-01 5.15e+01 6.26e+00  -9.0 6.08e+03    -  6.44e-02 2.66e-01h  1
 256 -2.6117423e-01 5.04e+01 6.16e+00  -9.0 4.00e+03    -  4.64e-02 2.02e-02h  1
 257 -2.6117445e-01 4.53e+01 5.55e+00  -9.0 1.79e+03    -  1.43e-01 1.22e-01h  1
 258 -2.6117472e-01 4.04e+01 4.23e+00  -9.0 2.08e+03    -  4.14e-02 1.28e-01h  1
 259 -2.6117529e-01 3.28e+01 5.48e+00  -9.0 1.66e+03    -  6.10e-01 3.23e-01h  1
iter    objective    inf_pr   inf_du lg(mu)  ||d||  lg(rg) alpha_du alpha_pr  ls
 260 -2.6117567e-01 2.79e+01 3.89e+00  -9.0 1.71e+03    -  1.70e-01 2.29e-01h  1
 261 -2.6117603e-01 2.43e+01 3.24e+01  -9.0 1.62e+03    -  5.03e-02 2.41e-01h  1
 262 -2.6117626e-01 2.17e+01 2.73e+01  -9.0 1.72e+03    -  1.77e-01 1.57e-01h  1
 263 -2.6117661e-01 1.97e+01 2.01e+01  -9.0 1.59e+03    -  6.74e-02 2.63e-01h  1
 264 -2.6117676e-01 1.80e+01 1.77e+01  -9.0 1.71e+03    -  1.87e-01 1.22e-01h  1
 265 -2.6117707e-01 1.69e+01 1.40e+01  -9.0 1.57e+03    -  8.61e-02 2.67e-01h  1
 266 -2.6117712e-01 1.55e+01 1.72e+01  -9.0 1.68e+03    -  2.61e-03 8.54e-02h  1
 267 -2.6117728e-01 1.40e+01 1.65e+01  -9.0 1.47e+03    -  5.79e-02 2.24e-01h  1
 268 -2.6117740e-01 1.36e+01 1.22e+01  -9.0 1.67e+03    -  3.24e-01 1.81e-01h  1
 269 -2.6117752e-01 1.32e+01 8.57e+00  -9.0 1.49e+03    -  1.03e-01 2.18e-01h  1
iter    objective    inf_pr   inf_du lg(mu)  ||d||  lg(rg) alpha_du alpha_pr  ls
 270 -2.6117754e-01 3.84e+00 8.69e+02  -9.0 4.12e+02    -  7.99e-03 1.00e+00h  1
 271 -2.6117745e-01 1.87e-03 1.57e-03  -9.0 5.09e+00    -  1.00e+00 1.00e+00h  1
 272 -2.6117762e-01 3.69e+00 2.19e-02  -9.0 1.95e+03    -  7.67e-01 2.04e-01h  1
 273 -2.6117760e-01 3.15e-02 1.29e-05  -9.0 3.98e+01    -  1.00e+00 1.00e+00h  1
 274 -2.6117761e-01 2.41e-02 2.87e-06  -9.0 3.17e+01    -  1.00e+00 1.00e+00h  1
 275 -2.6117761e-01 1.17e-05 1.24e-09  -9.0 6.73e-01    -  1.00e+00 1.00e+00h  1
 276 -2.6117761e-01 2.82e-10 3.83e-14  -9.0 1.86e-04    -  1.00e+00 1.00e+00h  1

Number of Iterations....: 276

                                   (scaled)                 (unscaled)
Objective...............:  -2.6117761132200146e-01   -2.6117761132200146e-01
Dual infeasibility......:   3.8321538463599034e-14    3.8321538463599034e-14
Constraint violation....:   2.8202692123942968e-10    2.8202692123942968e-10
Complementarity.........:   9.0909091189978492e-10    9.0909091189978492e-10
Overall NLP error.......:   9.0909091189978492e-10    9.0909091189978492e-10


Number of objective function evaluations             = 384
Number of objective gradient evaluations             = 277
Number of equality constraint evaluations            = 385
Number of inequality constraint evaluations          = 385
Number of equality constraint Jacobian evaluations   = 277
Number of inequality constraint Jacobian evaluations = 277
Number of Lagrangian Hessian evaluations             = 276
Total CPU secs in IPOPT (w/o function evaluations)   =    473.494
Total CPU secs in NLP function evaluations           =     10.197

EXIT: Optimal Solution Found.
